cliques=[{8,7,4,9,5,6,2,3,1,0},{118,40,52,82,88,72,102,11,93,1,110},{8,7,4,9,5,6,2,3,1,0},{120,63,55,13,31,42,3,23,104,74,131},{24,14,56,84,4,75,95,121,64,132,113},{8,7,4,9,5,6,2,3,1,0},{8,7,4,9,5,6,2,3,1,0},{8,7,4,9,5,6,2,3,1,0},{135,8,48,117,91,67,36,26,99,19,108,79,125},{8,7,4,9,5,6,2,3,1,0},{17,14,15,10,12,13,11,20,19,18,16},{118,40,52,82,88,72,102,11,93,1,110},{17,14,15,10,12,13,11,20,19,18,16},{17,14,15,10,12,13,11,20,19,18,16},{17,14,15,10,12,13,11,20,19,18,16},{17,14,15,10,12,13,11,20,19,18,16},{17,14,15,10,12,13,11,20,19,18,16},{17,14,15,10,12,13,11,20,19,18,16},{17,14,15,10,12,13,11,20,19,18,16},{135,8,48,117,91,67,36,26,99,19,108,79,125},{17,14,15,10,12,13,11,20,19,18,16},{24,21,28,27,25,26,23,22},{24,21,28,27,25,26,23,22},{120,63,55,13,31,42,3,23,104,74,131},{24,14,56,84,4,75,95,121,64,132,113},{35,98,47,25,107,85,124,58,134,18},{135,8,48,117,91,67,36,26,99,19,108,79,125},{24,21,28,27,25,26,23,22},{28,60,70,50,38,137,128,101,81,87},{34,33,35,32,36,31,38,37,29,30},{34,33,35,32,36,31,38,37,29,30},{34,33,35,32,36,31,38,37,29,30},{34,33,35,32,36,31,38,37,29,30},{34,33,35,32,36,31,38,37,29,30},{34,33,35,32,36,31,38,37,29,30},{34,33,35,32,36,31,38,37,29,30},{135,8,48,117,91,67,36,26,99,19,108,79,125},{34,33,35,32,36,31,38,37,29,30},{34,33,35,32,36,31,38,37,29,30},{40,48,46,47,41,44,50,45,42,49,39,43},{40,48,46,47,41,44,50,45,42,49,39,43},{40,48,46,47,41,44,50,45,42,49,39,43},{40,48,46,47,41,44,50,45,42,49,39,43},{40,48,46,47,41,44,50,45,42,49,39,43},{40,48,46,47,41,44,50,45,42,49,39,43},{40,48,46,47,41,44,50,45,42,49,39,43},{40,48,46,47,41,44,50,45,42,49,39,43},{40,48,46,47,41,44,50,45,42,49,39,43},{135,8,48,117,91,67,36,26,99,19,108,79,125},{40,48,46,47,41,44,50,45,42,49,39,43},{40,48,46,47,41,44,50,45,42,49,39,43},{51,52,56,55,60,57,58,59,54,53},{118,40,52,82,88,72,102,11,93,1,110},{51,52,56,55,60,57,58,59,54,53},{51,52,56,55,60,57,58,59,54,53},{120,63,55,13,31,42,3,23,104,74,131},{24,14,56,84,4,75,95,121,64,132,113},{51,52,56,55,60,57,58,59,54,53},{51,52,56,55,60,57,58,59,54,53},{51,52,56,55,60,57,58,59,54,53},{51,52,56,55,60,57,58,59,54,53},{63,67,61,70,62,68,64,66,65,69},{63,67,61,70,62,68,64,66,65,69},{120,63,55,13,31,42,3,23,104,74,131},{24,14,56,84,4,75,95,121,64,132,113},{123,96,32,90,106,44,6,16,65},{63,67,61,70,62,68,64,66,65,69},{135,8,48,117,91,67,36,26,99,19,108,79,125},{63,67,61,70,62,68,64,66,65,69},{63,67,61,70,62,68,64,66,65,69},{63,67,61,70,62,68,64,66,65,69},{76,71,77,80,78,72,75,73,74,81,79},{76,71,77,80,78,72,75,73,74,81,79},{76,71,77,80,78,72,75,73,74,81,79},{76,71,77,80,78,72,75,73,74,81,79},{76,71,77,80,78,72,75,73,74,81,79},{76,71,77,80,78,72,75,73,74,81,79},{76,71,77,80,78,72,75,73,74,81,79},{76,71,77,80,78,72,75,73,74,81,79},{135,8,48,117,91,67,36,26,99,19,108,79,125},{76,71,77,80,78,72,75,73,74,81,79},{76,71,77,80,78,72,75,73,74,81,79},{118,40,52,82,88,72,102,11,93,1,110},{129,61,111,83,2,29,103,94,53},{24,14,56,84,4,75,95,121,64,132,113},{35,98,47,25,107,85,124,58,134,18},{84,82,86,83,85,87},{28,60,70,50,38,137,128,101,81,87},{118,40,52,82,88,72,102,11,93,1,110},{76,15,122,5,114,57,105,89,43},{123,96,32,90,106,44,6,16,65},{135,8,48,117,91,67,36,26,99,19,108,79,125},{80,9,92,37,49,20,100,59,69,127},{118,40,52,82,88,72,102,11,93,1,110},{96,98,97,95,93,99,100,101,94},{24,14,56,84,4,75,95,121,64,132,113},{123,96,32,90,106,44,6,16,65},{17,7,33,77,97,115,45},{35,98,47,25,107,85,124,58,134,18},{135,8,48,117,91,67,36,26,99,19,108,79,125},{80,9,92,37,49,20,100,59,69,127},{28,60,70,50,38,137,128,101,81,87},{118,40,52,82,88,72,102,11,93,1,110},{129,61,111,83,2,29,103,94,53},{120,63,55,13,31,42,3,23,104,74,131},{76,15,122,5,114,57,105,89,43},{123,96,32,90,106,44,6,16,65},{35,98,47,25,107,85,124,58,134,18},{135,8,48,117,91,67,36,26,99,19,108,79,125},{117,116,114,111,115,112,109,110,113},{118,40,52,82,88,72,102,11,93,1,110},{117,116,114,111,115,112,109,110,113},{41,12,62,130,73,119,30,112,54,22},{24,14,56,84,4,75,95,121,64,132,113},{76,15,122,5,114,57,105,89,43},{17,7,33,77,97,115,45},{117,116,114,111,115,112,109,110,113},{135,8,48,117,91,67,36,26,99,19,108,79,125},{118,40,52,82,88,72,102,11,93,1,110},{120,118,126,123,122,119,121,124,128,127,125},{120,118,126,123,122,119,121,124,128,127,125},{120,118,126,123,122,119,121,124,128,127,125},{120,118,126,123,122,119,121,124,128,127,125},{120,118,126,123,122,119,121,124,128,127,125},{120,118,126,123,122,119,121,124,128,127,125},{135,8,48,117,91,67,36,26,99,19,108,79,125},{120,118,126,123,122,119,121,124,128,127,125},{120,118,126,123,122,119,121,124,128,127,125},{120,118,126,123,122,119,121,124,128,127,125},{135,129,133,130,136,137,134,131,132},{135,129,133,130,136,137,134,131,132},{120,63,55,13,31,42,3,23,104,74,131},{24,14,56,84,4,75,95,121,64,132,113},{135,129,133,130,136,137,134,131,132},{35,98,47,25,107,85,124,58,134,18},{135,8,48,117,91,67,36,26,99,19,108,79,125},{135,129,133,130,136,137,134,131,132},{135,129,133,130,136,137,134,131,132}];
nr_cliques=138;
